102	5
10	10	10	10	1
0	0	0	0	0	0	6	3	7	5	4	8	2
8	0	0	2	2	0	6	11	12	13	14	15	16
8	10	10	10	10	1	4	9	11	16	20
2	6	6	6	6	1	5	6	10	13	15	16
4	10	10	8	8	1	4	6	10	13	15
1	6	2	4	6	0	10	17	18	19	20	24	25	26	28	29	32
5	10	10	8	8	1	6	12	14	17	25	29	32
1	4	4	4	4	0	3	13	15	16
5	10	10	8	8	1	4	10	13	24	28
1	2	0	6	4	0	8	17	18	19	25	26	29	32	36
8	6	8	8	6	1	3	18	19	25
3	10	10	10	10	1	4	18	19	24	28
7	8	10	4	6	1	8	17	18	19	25	26	29	32	36
1	10	10	10	10	1	6	27	31	33	34	35	39
10	4	8	5	4	1	9	17	18	19	20	24	25	26	29	36
3	10	10	10	10	1	5	21	22	24	30	36
9	10	10	10	10	1	6	27	31	33	34	35	39
6	10	10	4	7	1	3	21	22	30
7	0	0	6	3	0	3	21	22	30
4	10	10	10	10	1	2	21	22
8	10	10	10	4	1	2	23	39
8	0	0	0	6	0	2	23	39
7	10	10	10	10	1	5	27	31	33	34	35
5	10	10	10	10	1	3	37	38	40
6	10	10	10	10	1	6	27	31	33	34	35	39
10	5	8	5	7	1	3	30	38	40
9	5	4	3	4	0	4	37	38	40	41
6	4	2	2	4	0	3	34	36	39
8	10	10	10	10	1	10	33	37	39	42	44	46	47	48	49	50
7	5	8	5	6	1	9	33	37	39	42	44	46	48	49	50
7	5	6	7	6	1	4	37	38	40	41
3	5	2	5	3	0	8	33	37	42	44	46	47	48	49
10	4	0	3	0	0	3	54	55	62
5	6	10	7	4	1	4	37	38	40	41
8	4	0	3	6	0	4	37	38	40	41
8	10	10	10	10	1	5	37	41	44	47	48
10	10	10	10	10	1	4	45	54	58	62
3	6	10	7	10	1	4	45	47	48	54
6	6	10	7	10	1	3	43	52	53
5	6	10	7	10	1	6	42	44	46	49	50	59
5	10	10	10	10	1	3	43	59	62
1	6	10	7	10	1	1	43
9	10	10	10	10	1	3	45	54	63
2	10	10	10	10	1	3	45	54	63
3	5	5	6	4	1	3	56	60	70
10	6	10	7	10	1	6	63	64	67	70	71	76
3	10	10	10	10	1	5	63	64	67	70	77
7	10	10	10	10	1	5	51	52	53	57	59
7	6	10	6	5	1	6	51	52	53	55	57	58
5	4	0	4	5	0	6	51	52	53	55	57	58
3	5	4	1	6	0	4	60	70	76	77
9	4	6	3	2	0	4	56	60	62	70
9	6	4	7	8	1	4	56	60	62	70
3	5	5	4	5	0	3	56	60	70
1	10	10	10	10	1	2	56	63
5	10	10	10	10	1	6	61	65	66	68	71	76
8	5	6	9	4	1	5	64	66	67	68	76
1	10	10	10	10	1	4	60	61	70	71
5	10	10	10	10	1	5	66	68	73	74	77
1	10	10	10	10	1	4	64	66	67	68
3	6	6	7	7	1	2	64	67
7	5	6	9	4	1	4	64	67	76	77
10	10	10	10	10	1	3	66	68	73
9	4	7	4	3	0	9	69	73	74	75	79	81	83	84	86
3	10	10	10	10	1	7	72	74	75	79	81	83	86
6	6	6	5	6	1	6	72	75	79	81	83	86
3	6	3	6	7	1	8	69	73	74	75	79	81	84	86
2	4	4	5	4	0	6	72	75	79	81	83	86
8	6	6	6	7	1	8	89	90	95	96	97	98	99	101
10	10	10	10	10	1	8	74	78	80	81	83	84	87	88
1	4	4	3	3	0	7	73	74	75	77	79	83	84
5	6	6	7	5	1	4	78	80	84	88
1	10	6	6	7	1	3	78	80	88
5	10	10	10	10	1	2	98	100
7	0	8	5	7	0	7	82	87	88	89	92	93	94
8	10	10	10	10	1	9	82	89	90	91	92	93	94	97	99
3	10	10	10	10	1	3	78	80	88
1	10	6	4	6	1	4	82	85	91	93
7	10	2	5	3	1	6	82	87	88	89	92	94
7	0	4	6	4	0	4	82	85	91	93
1	4	4	3	5	0	3	85	91	93
8	6	6	5	4	1	4	95	96	98	101
7	0	4	4	3	0	6	90	91	92	95	97	101
1	4	10	10	6	1	1	96
10	10	10	10	10	1	7	89	90	92	94	95	97	99
4	10	10	10	10	1	4	90	96	97	99
9	10	10	10	10	1	4	90	97	99	101
7	6	0	0	4	0	5	96	97	98	99	101
7	4	4	4	4	0	1	102
1	4	4	4	6	0	1	102
9	10	10	10	10	1	1	100
7	4	6	6	6	1	2	96	98
8	0	4	5	6	0	4	95	96	98	101
1	10	6	6	7	1	1	102
2	10	5	10	4	1	1	100
1	10	10	10	10	1	1	102
7	6	5	6	4	1	1	102
9	10	10	10	10	1	1	102
6	0	5	0	6	0	1	102
4	10	10	10	10	1	1	102
2	10	10	10	10	1	1	102
0	0	0	0	0	0	0
